atom in a box                           
   1.00000000000000     
    14.0000000000000000    0.0000000000000000    0.0000000000000000
     0.0000000000000000   13.0000000000000000    0.0000000000000000
     0.0000000000000000    0.0000000000000000   12.0000000000000000
   N 
     1
Selective dynamics
Direct
  0.0000000000000000  0.0000000000000000  0.0000000000000000   F   F   F
 
  0.00000000E+00  0.00000000E+00  0.00000000E+00
