Cu(111)-10L                             
   3.63677000000000     
     0.5000000000000000   -0.5000000000000000    0.0000000000000000
     0.5000000000000000    0.0000000000000000   -0.5000000000000000
     6.7500000000000009    6.7500000000000009    6.7500000000000009
   Cu
    10
Selective dynamics
Direct
 -0.0000000000000000  0.0000000000000000  0.5444133630465917   T   T   T
  0.3333333333333357  0.3333333333333357  0.4953992102362916   T   T   T
  0.6666666666666643  0.6666666666666643  0.4460830320776735   T   T   T
  0.0000000000000000  0.0000000000000000  0.3964752154743119   T   T   T
  0.3333333333333357  0.3333333333333357  0.3469135802469125   F   F   F
  0.6666666666666643  0.6666666666666643  0.2975308641975332   F   F   F
  0.0000000000000000  0.0000000000000000  0.2481481481481467   F   F   F
  0.3333333333333357  0.3333333333333357  0.1987654320987673   F   F   F
  0.6666666666666643  0.6666666666666643  0.1493827160493808   F   F   F
  0.0000000000000000  0.0000000000000000  0.1000000000000014   F   F   F
 
  0.00000000E+00  0.00000000E+00  0.00000000E+00
  0.00000000E+00  0.00000000E+00  0.00000000E+00
  0.00000000E+00  0.00000000E+00  0.00000000E+00
  0.00000000E+00  0.00000000E+00  0.00000000E+00
  0.00000000E+00  0.00000000E+00  0.00000000E+00
  0.00000000E+00  0.00000000E+00  0.00000000E+00
  0.00000000E+00  0.00000000E+00  0.00000000E+00
  0.00000000E+00  0.00000000E+00  0.00000000E+00
  0.00000000E+00  0.00000000E+00  0.00000000E+00
  0.00000000E+00  0.00000000E+00  0.00000000E+00
