Cu(111)-10L
  3.63677
     0.5000000000000000 -0.5000000000000000  0.0000000000000000 
     0.5000000000000000  0.0000000000000000 -0.5000000000000000 
     6.7500000000000000  6.7500000000000000  6.7500000000000000 
  Cu
  10 
Selective dynamics
Direct
  0.0000000000000000  0.0000000000000000  0.5444444444444444   T   T   T
  0.3333333333333333  0.3333333333333333  0.4950617283950617   T   T   T
  0.6666666666666666  0.6666666666666666  0.4456790123456790   T   T   T
  0.0000000000000000  0.0000000000000000  0.3962962962962963   T   T   T
  0.3333333333333333  0.3333333333333333  0.3469135802469135   F   F   F
  0.6666666666666666  0.6666666666666666  0.2975308641975308   F   F   F
  0.0000000000000000  0.0000000000000000  0.2481481481481481   F   F   F
  0.3333333333333333  0.3333333333333333  0.1987654320987654   F   F   F
  0.6666666666666666  0.6666666666666666  0.1493827160493827   F   F   F
  0.0000000000000000  0.0000000000000000  0.1000000000000000   F   F   F
