4x4x4
 0
Gonkhorst
 21  21  21
 0   0   0

