MoS2                                    
   3.16000000000000     
     0.8660254037844386   -0.5000000000000000    0.0000000000000000
     0.0000000000000000    1.0000000000000000    0.0000000000000000
     0.0000000000000000    0.0000000000000000    6.0000000000000000
   Mo   S 
     1     2
Selective dynamics
Direct
  0.0000000000000000  0.0000000000000000  0.5000000000000000   F   F   F
  0.3333333333333357  0.6666666666666643  0.4169104210738558   F   F   T
  0.3333333333333357  0.6666666666666643  0.5830895789261441   F   F   T
 
  0.00000000E+00  0.00000000E+00  0.00000000E+00
  0.00000000E+00  0.00000000E+00  0.00000000E+00
  0.00000000E+00  0.00000000E+00  0.00000000E+00
