MoS2                                    
   3.21000000000000     
     0.8660254037844385   -0.5000000000000000    0.0000000000000000
     0.0000000000000000    1.0000000000000000    0.0000000000000000
     0.0000000000000000    0.0000000000000000    5.9999999999999991
   Mo   S 
     1     2
Selective dynamics
Direct
  0.0000000000000000  0.0000000000000000  0.5000000000000000   F   F   F
  0.3333333333333357  0.6666666666666643  0.4190683765921839   F   F   T
  0.3333333333333357  0.6666666666666643  0.5809316234078161   F   F   T
 
  0.00000000E+00  0.00000000E+00  0.00000000E+00
  0.00000000E+00  0.00000000E+00  0.00000000E+00
  0.00000000E+00  0.00000000E+00  0.00000000E+00
