MoS2                                    
3.21
     0.8660254037844386   -0.5000000000000000    0.0000000000000000
     0.0000000000000000    1.0000000000000000    0.0000000000000000
     0.0000000000000000    0.0000000000000000    6.0000000000000000
   Mo   S 
   1    2
Selective dynamics
Direct
  0.0000000000000000  0.0000000000000000  0.5000000000000000   F   F   F
  0.3333333333333333  0.6666666666666666  0.4182374246372618   F   F   T
  0.3333333333333333  0.6666666666666666  0.5817625753627382   F   F   T
 
